
  32    1
  10

   0   0   8 2 3 5 6 7 8 9 14 
   9   1   5 16 13 12 11 10 
   1   3   3 17 16 4 
   7   1   5 24 19 15 13 12 
   9   1   6 25 22 20 19 16 11 
   9   3   5 25 22 16 12 11 
   6   1   5 24 19 18 15 13 
   3   4   4 24 16 15 12 
   5   2   5 25 24 20 18 15 
   1   2   4 20 19 17 15 
   1   2   5 31 29 24 21 18 
   3   1   3 31 20 18 
   9   2   5 30 29 25 23 21 
   5   3   5 30 29 28 25 23 
   3   3   4 31 29 22 21 
   3   3   5 30 29 28 26 23 
   5   2   3 30 28 22 
   4   1   3 30 28 23 
   7   2   3 28 26 23 
   1   3   3 29 27 26 
   6   2   2 28 26 
   6   3   2 27 26 
   7   2   1 27 
   8   1   1 28 
   6   1   1 26 
   2   2   1 32
   7   3   1 32
   7   1   1 32
   7   2   1 32
   4   2   1 32
  10   1   1 32
   0   0   0 
